nN = 10;
nR = 40;
nH = 1;

a = [[17, 17, 16, 22, 24, 15, 19, 21, 19, 25, 25, 16, 18, 19, 21, 17, 15, 20, 20, 15, 20, 17, 23, 15, 16, 21, 25, 18, 23, 15, 22, 22, 15, 24, 25, 24, 21, 19, 23, 18], [21, 20, 19, 22, 20, 18, 20, 17, 15, 21, 16, 17, 15, 21, 25, 22, 24, 20, 22, 20, 16, 25, 22, 24, 25, 23, 15, 25, 21, 15, 16, 19, 18, 23, 22, 19, 16, 15, 19, 15], [25, 21, 23, 16, 16, 22, 18, 25, 23, 23, 23, 23, 21, 18, 19, 19, 19, 22, 22, 20, 16, 25, 19, 24, 18, 18, 18, 16, 23, 22, 25, 25, 22, 24, 16, 19, 25, 20, 15, 18], [18, 16, 21, 19, 25, 25, 24, 17, 18, 25, 20, 21, 22, 23, 20, 22, 25, 25, 19, 22, 23, 19, 17, 16, 16, 21, 25, 21, 23, 20, 20, 15, 18, 21, 21, 20, 17, 15, 24, 22], [19, 18, 21, 25, 25, 21, 23, 15, 16, 21, 18, 23, 21, 24, 23, 23, 20, 20, 23, 24, 15, 24, 20, 20, 19, 18, 17, 21, 24, 19, 19, 17, 24, 17, 23, 18, 25, 22, 17, 25], [25, 17, 18, 19, 25, 23, 23, 17, 17, 21, 24, 18, 19, 15, 16, 21, 24, 20, 15, 25, 22, 16, 17, 16, 24, 15, 19, 17, 25, 16, 25, 21, 20, 17, 25, 22, 15, 16, 20, 15], [22, 24, 22, 17, 21, 24, 15, 23, 23, 17, 16, 25, 16, 17, 23, 19, 17, 16, 25, 24, 22, 16, 18, 22, 17, 16, 22, 15, 17, 20, 25, 17, 23, 23, 18, 24, 15, 19, 25, 23], [16, 25, 22, 16, 25, 19, 20, 22, 16, 22, 23, 25, 22, 18, 23, 25, 20, 15, 19, 20, 20, 17, 20, 17, 21, 25, 16, 17, 17, 24, 18, 21, 15, 17, 18, 20, 15, 21, 19, 18], [22, 16, 23, 23, 17, 15, 20, 23, 20, 19, 22, 21, 20, 16, 21, 17, 19, 18, 15, 25, 25, 15, 17, 22, 23, 20, 21, 19, 20, 19, 17, 22, 25, 20, 18, 22, 16, 23, 16, 21], [25, 24, 24, 20, 18, 19, 16, 22, 25, 24, 19, 23, 23, 19, 15, 22, 20, 24, 17, 24, 20, 23, 25, 23, 18, 17, 20, 18, 16, 21, 21, 16, 20, 15, 25, 15, 25, 20, 17, 15]];
c = [[[0, 0, 0, 0, 0, 0, 0, 0, 0, 0, 0, 0, 0, 0, 0, 0, 0, 0, 0, 0, 0, 0, 0, 0, 0, 0, 0, 0, 0, 0, 0, 0, 0, 0, 0, 0, 0, 0, 0, 0], [43, 30, 36, 40, 38, 34, 40, 46, 43, 44, 36, 32, 44, 47, 34, 45, 31, 35, 39, 50, 41, 35, 45, 49, 37, 32, 45, 40, 47, 36, 49, 36, 30, 42, 34, 40, 35, 47, 39, 49], [43, 31, 42, 35, 44, 42, 49, 40, 38, 42, 39, 36, 31, 35, 49, 31, 33, 30, 38, 40, 50, 47, 43, 39, 47, 38, 30, 41, 44, 33, 31, 35, 46, 43, 42, 47, 33, 37, 49, 37], [47, 33, 40, 35, 44, 49, 40, 39, 39, 34, 48, 43, 39, 39, 50, 43, 31, 33, 43, 37, 34, 48, 40, 41, 43, 42, 44, 30, 39, 40, 35, 45, 38, 40, 39, 44, 32, 39, 49, 36], [41, 34, 43, 30, 43, 37, 39, 44, 36, 48, 33, 37, 48, 50, 37, 41, 46, 41, 37, 37, 48, 34, 48, 31, 35, 38, 31, 40, 38, 50, 39, 40, 46, 35, 44, 47, 45, 34, 43, 35], [38, 47, 31, 40, 43, 43, 44, 41, 40, 33, 36, 45, 32, 34, 31, 32, 48, 35, 33, 48, 49, 47, 42, 50, 47, 32, 31, 32, 35, 44, 45, 47, 42, 43, 39, 31, 47, 36, 32, 35], [34, 48, 36, 48, 49, 40, 41, 36, 50, 48, 34, 33, 44, 48, 32, 35, 30, 46, 48, 31, 47, 47, 44, 45, 44, 41, 44, 46, 34, 49, 36, 30, 48, 44, 50, 49, 31, 39, 43, 38], [30, 39, 34, 42, 46, 43, 38, 36, 37, 45, 30, 36, 39, 46, 46, 35, 38, 46, 35, 37, 50, 38, 50, 49, 31, 47, 44, 37, 31, 43, 30, 36, 42, 47, 31, 50, 44, 50, 47, 41], [35, 50, 41, 44, 46, 32, 40, 31, 48, 42, 34, 49, 48, 47, 33, 31, 37, 33, 31, 41, 37, 41, 45, 41, 45, 41, 31, 48, 31, 37, 48, 33, 37, 40, 40, 48, 37, 35, 37, 37], [34, 42, 41, 44, 38, 50, 33, 35, 41, 41, 37, 42, 45, 50, 44, 50, 33, 42, 44, 47, 41, 41, 36, 38, 50, 35, 34, 40, 32, 47, 45, 36, 36, 30, 36, 45, 43, 48, 33, 45]], [[0, 0, 0, 0, 0, 0, 0, 0, 0, 0, 0, 0, 0, 0, 0, 0, 0, 0, 0, 0, 0, 0, 0, 0, 0, 0, 0, 0, 0, 0, 0, 0, 0, 0, 0, 0, 0, 0, 0, 0], [0, 0, 0, 0, 0, 0, 0, 0, 0, 0, 0, 0, 0, 0, 0, 0, 0, 0, 0, 0, 0, 0, 0, 0, 0, 0, 0, 0, 0, 0, 0, 0, 0, 0, 0, 0, 0, 0, 0, 0], [34, 30, 31, 38, 49, 35, 41, 44, 37, 41, 40, 46, 32, 38, 41, 44, 36, 46, 49, 42, 46, 34, 36, 33, 37, 36, 41, 35, 35, 35, 44, 47, 48, 44, 47, 40, 32, 35, 38, 36], [43, 45, 46, 47, 42, 46, 37, 39, 34, 38, 43, 31, 45, 40, 43, 33, 33, 34, 34, 31, 45, 46, 47, 39, 31, 49, 30, 48, 31, 31, 37, 49, 50, 31, 48, 35, 50, 30, 41, 48], [35, 45, 38, 38, 44, 32, 34, 33, 48, 42, 35, 37, 33, 31, 34, 43, 31, 34, 41, 50, 36, 31, 30, 43, 34, 30, 31, 37, 47, 32, 40, 41, 38, 44, 48, 38, 49, 32, 34, 48], [49, 48, 38, 47, 32, 39, 46, 31, 40, 49, 31, 44, 41, 32, 35, 40, 33, 42, 50, 35, 37, 41, 41, 38, 49, 50, 46, 31, 48, 45, 33, 46, 31, 39, 44, 34, 34, 45, 50, 46], [35, 48, 44, 39, 49, 32, 43, 50, 47, 38, 33, 48, 50, 48, 45, 44, 44, 33, 31, 45, 44, 42, 48, 30, 45, 47, 48, 41, 39, 42, 32, 39, 50, 34, 48, 34, 36, 42, 50, 45], [41, 34, 31, 41, 44, 34, 43, 48, 37, 50, 45, 32, 46, 48, 47, 42, 30, 49, 46, 31, 30, 31, 49, 35, 30, 44, 46, 34, 43, 37, 38, 40, 34, 30, 47, 49, 43, 30, 41, 45], [49, 33, 46, 46, 37, 41, 40, 33, 36, 36, 38, 44, 45, 44, 32, 33, 42, 35, 36, 48, 45, 41, 50, 34, 37, 38, 39, 33, 36, 48, 31, 40, 34, 50, 42, 35, 31, 42, 36, 31], [32, 37, 49, 41, 31, 42, 43, 33, 42, 40, 43, 30, 45, 48, 50, 46, 45, 48, 39, 30, 44, 37, 31, 49, 35, 35, 39, 37, 44, 30, 50, 36, 34, 40, 33, 39, 43, 43, 45, 49]], [[0, 0, 0, 0, 0, 0, 0, 0, 0, 0, 0, 0, 0, 0, 0, 0, 0, 0, 0, 0, 0, 0, 0, 0, 0, 0, 0, 0, 0, 0, 0, 0, 0, 0, 0, 0, 0, 0, 0, 0], [0, 0, 0, 0, 0, 0, 0, 0, 0, 0, 0, 0, 0, 0, 0, 0, 0, 0, 0, 0, 0, 0, 0, 0, 0, 0, 0, 0, 0, 0, 0, 0, 0, 0, 0, 0, 0, 0, 0, 0], [0, 0, 0, 0, 0, 0, 0, 0, 0, 0, 0, 0, 0, 0, 0, 0, 0, 0, 0, 0, 0, 0, 0, 0, 0, 0, 0, 0, 0, 0, 0, 0, 0, 0, 0, 0, 0, 0, 0, 0], [43, 41, 48, 33, 48, 41, 34, 49, 48, 50, 43, 41, 39, 43, 45, 33, 38, 46, 33, 32, 39, 45, 34, 34, 48, 50, 48, 32, 34, 37, 35, 30, 42, 34, 47, 44, 37, 39, 34, 44], [46, 49, 45, 44, 38, 36, 34, 44, 50, 44, 40, 49, 35, 40, 32, 33, 41, 38, 33, 34, 35, 34, 42, 49, 49, 50, 42, 39, 45, 40, 43, 39, 42, 42, 45, 30, 43, 41, 50, 34], [45, 35, 36, 33, 41, 30, 46, 40, 46, 48, 33, 33, 41, 33, 33, 35, 33, 43, 38, 46, 30, 49, 44, 43, 42, 49, 46, 42, 41, 46, 45, 38, 49, 33, 41, 38, 47, 32, 38, 43], [31, 31, 45, 44, 46, 47, 42, 41, 46, 35, 47, 38, 50, 33, 44, 30, 49, 45, 37, 39, 45, 50, 43, 34, 44, 48, 47, 36, 43, 43, 47, 44, 43, 30, 38, 47, 32, 48, 36, 30], [38, 47, 44, 41, 38, 45, 45, 45, 32, 35, 41, 43, 46, 44, 34, 41, 30, 42, 32, 48, 36, 43, 49, 46, 39, 49, 41, 50, 50, 31, 48, 44, 49, 50, 46, 48, 39, 49, 44, 39], [37, 49, 49, 36, 35, 48, 45, 38, 32, 37, 39, 31, 45, 36, 33, 30, 39, 47, 47, 35, 40, 45, 40, 34, 49, 49, 39, 44, 49, 49, 50, 48, 50, 43, 47, 45, 47, 33, 45, 43], [44, 49, 33, 39, 48, 37, 47, 44, 30, 38, 31, 48, 38, 48, 30, 41, 45, 35, 34, 46, 41, 48, 43, 45, 45, 39, 49, 48, 34, 44, 33, 37, 36, 39, 33, 50, 50, 37, 30, 44]], [[0, 0, 0, 0, 0, 0, 0, 0, 0, 0, 0, 0, 0, 0, 0, 0, 0, 0, 0, 0, 0, 0, 0, 0, 0, 0, 0, 0, 0, 0, 0, 0, 0, 0, 0, 0, 0, 0, 0, 0], [0, 0, 0, 0, 0, 0, 0, 0, 0, 0, 0, 0, 0, 0, 0, 0, 0, 0, 0, 0, 0, 0, 0, 0, 0, 0, 0, 0, 0, 0, 0, 0, 0, 0, 0, 0, 0, 0, 0, 0], [0, 0, 0, 0, 0, 0, 0, 0, 0, 0, 0, 0, 0, 0, 0, 0, 0, 0, 0, 0, 0, 0, 0, 0, 0, 0, 0, 0, 0, 0, 0, 0, 0, 0, 0, 0, 0, 0, 0, 0], [0, 0, 0, 0, 0, 0, 0, 0, 0, 0, 0, 0, 0, 0, 0, 0, 0, 0, 0, 0, 0, 0, 0, 0, 0, 0, 0, 0, 0, 0, 0, 0, 0, 0, 0, 0, 0, 0, 0, 0], [36, 43, 35, 46, 48, 41, 40, 37, 30, 50, 32, 41, 41, 47, 45, 48, 50, 37, 35, 40, 33, 44, 33, 49, 33, 49, 40, 36, 35, 32, 49, 43, 32, 31, 48, 39, 41, 46, 48, 48], [45, 49, 50, 38, 45, 36, 39, 44, 50, 42, 49, 41, 37, 34, 48, 39, 44, 44, 36, 35, 42, 45, 33, 35, 36, 32, 45, 41, 30, 35, 46, 35, 37, 37, 43, 48, 31, 32, 39, 44], [48, 33, 50, 36, 32, 37, 36, 49, 37, 33, 42, 31, 45, 39, 49, 48, 43, 46, 42, 45, 34, 46, 42, 39, 41, 45, 44, 42, 43, 47, 34, 41, 45, 36, 46, 44, 30, 30, 47, 30], [43, 41, 32, 31, 50, 39, 40, 41, 45, 41, 31, 48, 47, 30, 45, 30, 31, 38, 35, 48, 32, 30, 35, 30, 43, 33, 46, 34, 34, 41, 43, 33, 42, 42, 34, 46, 50, 39, 31, 36], [32, 41, 37, 47, 44, 50, 42, 33, 38, 32, 38, 31, 44, 38, 32, 34, 42, 40, 41, 49, 50, 44, 48, 43, 36, 44, 31, 37, 47, 32, 34, 42, 32, 37, 48, 35, 44, 34, 46, 42], [30, 40, 43, 36, 32, 36, 36, 35, 49, 33, 48, 49, 48, 49, 33, 35, 41, 33, 46, 33, 31, 50, 46, 45, 40, 37, 35, 32, 39, 47, 33, 41, 47, 34, 50, 35, 36, 37, 42, 34]], [[0, 0, 0, 0, 0, 0, 0, 0, 0, 0, 0, 0, 0, 0, 0, 0, 0, 0, 0, 0, 0, 0, 0, 0, 0, 0, 0, 0, 0, 0, 0, 0, 0, 0, 0, 0, 0, 0, 0, 0], [0, 0, 0, 0, 0, 0, 0, 0, 0, 0, 0, 0, 0, 0, 0, 0, 0, 0, 0, 0, 0, 0, 0, 0, 0, 0, 0, 0, 0, 0, 0, 0, 0, 0, 0, 0, 0, 0, 0, 0], [0, 0, 0, 0, 0, 0, 0, 0, 0, 0, 0, 0, 0, 0, 0, 0, 0, 0, 0, 0, 0, 0, 0, 0, 0, 0, 0, 0, 0, 0, 0, 0, 0, 0, 0, 0, 0, 0, 0, 0], [0, 0, 0, 0, 0, 0, 0, 0, 0, 0, 0, 0, 0, 0, 0, 0, 0, 0, 0, 0, 0, 0, 0, 0, 0, 0, 0, 0, 0, 0, 0, 0, 0, 0, 0, 0, 0, 0, 0, 0], [0, 0, 0, 0, 0, 0, 0, 0, 0, 0, 0, 0, 0, 0, 0, 0, 0, 0, 0, 0, 0, 0, 0, 0, 0, 0, 0, 0, 0, 0, 0, 0, 0, 0, 0, 0, 0, 0, 0, 0], [47, 30, 46, 38, 30, 42, 47, 48, 40, 49, 30, 45, 47, 44, 43, 36, 32, 30, 40, 44, 40, 42, 33, 48, 35, 33, 43, 39, 37, 46, 48, 40, 46, 40, 30, 44, 39, 32, 46, 42], [49, 31, 50, 44, 37, 42, 41, 45, 47, 43, 36, 43, 48, 39, 30, 39, 41, 50, 45, 48, 42, 35, 44, 39, 30, 30, 38, 50, 42, 39, 48, 33, 36, 41, 43, 48, 45, 31, 44, 31], [35, 38, 36, 32, 46, 38, 45, 47, 32, 36, 35, 30, 50, 38, 40, 41, 39, 47, 37, 32, 46, 43, 37, 46, 32, 47, 50, 30, 47, 38, 39, 35, 40, 42, 34, 38, 31, 36, 34, 37], [49, 42, 46, 48, 40, 45, 47, 49, 49, 31, 37, 33, 37, 33, 50, 31, 47, 31, 41, 44, 41, 38, 38, 37, 42, 30, 50, 45, 48, 42, 32, 38, 33, 42, 42, 34, 37, 48, 33, 32], [43, 37, 35, 32, 47, 34, 37, 31, 34, 38, 32, 40, 47, 48, 37, 35, 39, 31, 34, 32, 38, 30, 38, 41, 34, 34, 35, 47, 38, 37, 38, 34, 43, 33, 33, 40, 44, 35, 49, 35]], [[0, 0, 0, 0, 0, 0, 0, 0, 0, 0, 0, 0, 0, 0, 0, 0, 0, 0, 0, 0, 0, 0, 0, 0, 0, 0, 0, 0, 0, 0, 0, 0, 0, 0, 0, 0, 0, 0, 0, 0], [0, 0, 0, 0, 0, 0, 0, 0, 0, 0, 0, 0, 0, 0, 0, 0, 0, 0, 0, 0, 0, 0, 0, 0, 0, 0, 0, 0, 0, 0, 0, 0, 0, 0, 0, 0, 0, 0, 0, 0], [0, 0, 0, 0, 0, 0, 0, 0, 0, 0, 0, 0, 0, 0, 0, 0, 0, 0, 0, 0, 0, 0, 0, 0, 0, 0, 0, 0, 0, 0, 0, 0, 0, 0, 0, 0, 0, 0, 0, 0], [0, 0, 0, 0, 0, 0, 0, 0, 0, 0, 0, 0, 0, 0, 0, 0, 0, 0, 0, 0, 0, 0, 0, 0, 0, 0, 0, 0, 0, 0, 0, 0, 0, 0, 0, 0, 0, 0, 0, 0], [0, 0, 0, 0, 0, 0, 0, 0, 0, 0, 0, 0, 0, 0, 0, 0, 0, 0, 0, 0, 0, 0, 0, 0, 0, 0, 0, 0, 0, 0, 0, 0, 0, 0, 0, 0, 0, 0, 0, 0], [0, 0, 0, 0, 0, 0, 0, 0, 0, 0, 0, 0, 0, 0, 0, 0, 0, 0, 0, 0, 0, 0, 0, 0, 0, 0, 0, 0, 0, 0, 0, 0, 0, 0, 0, 0, 0, 0, 0, 0], [49, 40, 39, 42, 45, 49, 47, 36, 30, 32, 32, 35, 50, 40, 30, 34, 44, 34, 32, 33, 35, 44, 38, 33, 48, 34, 41, 33, 42, 30, 33, 49, 35, 45, 37, 42, 38, 40, 46, 40], [38, 43, 46, 47, 40, 37, 41, 30, 45, 43, 39, 47, 49, 30, 49, 31, 32, 35, 39, 32, 33, 41, 48, 39, 35, 38, 44, 35, 32, 45, 34, 48, 38, 30, 45, 37, 41, 34, 31, 38], [30, 34, 46, 45, 44, 46, 40, 35, 36, 31, 42, 43, 47, 40, 47, 33, 43, 30, 49, 33, 50, 49, 39, 36, 46, 35, 50, 34, 45, 30, 32, 30, 40, 39, 39, 44, 48, 33, 45, 45], [48, 38, 37, 48, 46, 30, 46, 39, 49, 40, 33, 36, 43, 35, 44, 31, 37, 37, 44, 34, 47, 50, 47, 47, 46, 40, 43, 41, 50, 43, 31, 41, 33, 49, 46, 36, 46, 30, 31, 41]], [[0, 0, 0, 0, 0, 0, 0, 0, 0, 0, 0, 0, 0, 0, 0, 0, 0, 0, 0, 0, 0, 0, 0, 0, 0, 0, 0, 0, 0, 0, 0, 0, 0, 0, 0, 0, 0, 0, 0, 0], [0, 0, 0, 0, 0, 0, 0, 0, 0, 0, 0, 0, 0, 0, 0, 0, 0, 0, 0, 0, 0, 0, 0, 0, 0, 0, 0, 0, 0, 0, 0, 0, 0, 0, 0, 0, 0, 0, 0, 0], [0, 0, 0, 0, 0, 0, 0, 0, 0, 0, 0, 0, 0, 0, 0, 0, 0, 0, 0, 0, 0, 0, 0, 0, 0, 0, 0, 0, 0, 0, 0, 0, 0, 0, 0, 0, 0, 0, 0, 0], [0, 0, 0, 0, 0, 0, 0, 0, 0, 0, 0, 0, 0, 0, 0, 0, 0, 0, 0, 0, 0, 0, 0, 0, 0, 0, 0, 0, 0, 0, 0, 0, 0, 0, 0, 0, 0, 0, 0, 0], [0, 0, 0, 0, 0, 0, 0, 0, 0, 0, 0, 0, 0, 0, 0, 0, 0, 0, 0, 0, 0, 0, 0, 0, 0, 0, 0, 0, 0, 0, 0, 0, 0, 0, 0, 0, 0, 0, 0, 0], [0, 0, 0, 0, 0, 0, 0, 0, 0, 0, 0, 0, 0, 0, 0, 0, 0, 0, 0, 0, 0, 0, 0, 0, 0, 0, 0, 0, 0, 0, 0, 0, 0, 0, 0, 0, 0, 0, 0, 0], [0, 0, 0, 0, 0, 0, 0, 0, 0, 0, 0, 0, 0, 0, 0, 0, 0, 0, 0, 0, 0, 0, 0, 0, 0, 0, 0, 0, 0, 0, 0, 0, 0, 0, 0, 0, 0, 0, 0, 0], [37, 49, 48, 34, 34, 46, 35, 38, 34, 35, 34, 36, 33, 30, 41, 45, 36, 35, 30, 35, 31, 50, 47, 37, 48, 33, 44, 37, 40, 43, 48, 44, 41, 46, 30, 49, 36, 44, 47, 46], [42, 36, 49, 31, 34, 34, 36, 35, 50, 39, 43, 36, 42, 34, 30, 50, 41, 44, 34, 46, 41, 41, 39, 47, 43, 36, 41, 50, 41, 46, 39, 40, 45, 49, 49, 49, 31, 37, 40, 36], [48, 50, 49, 44, 44, 47, 31, 48, 35, 49, 50, 47, 37, 37, 35, 34, 45, 50, 40, 44, 32, 46, 43, 45, 50, 42, 34, 49, 47, 43, 30, 43, 34, 42, 45, 32, 35, 33, 39, 43]], [[0, 0, 0, 0, 0, 0, 0, 0, 0, 0, 0, 0, 0, 0, 0, 0, 0, 0, 0, 0, 0, 0, 0, 0, 0, 0, 0, 0, 0, 0, 0, 0, 0, 0, 0, 0, 0, 0, 0, 0], [0, 0, 0, 0, 0, 0, 0, 0, 0, 0, 0, 0, 0, 0, 0, 0, 0, 0, 0, 0, 0, 0, 0, 0, 0, 0, 0, 0, 0, 0, 0, 0, 0, 0, 0, 0, 0, 0, 0, 0], [0, 0, 0, 0, 0, 0, 0, 0, 0, 0, 0, 0, 0, 0, 0, 0, 0, 0, 0, 0, 0, 0, 0, 0, 0, 0, 0, 0, 0, 0, 0, 0, 0, 0, 0, 0, 0, 0, 0, 0], [0, 0, 0, 0, 0, 0, 0, 0, 0, 0, 0, 0, 0, 0, 0, 0, 0, 0, 0, 0, 0, 0, 0, 0, 0, 0, 0, 0, 0, 0, 0, 0, 0, 0, 0, 0, 0, 0, 0, 0], [0, 0, 0, 0, 0, 0, 0, 0, 0, 0, 0, 0, 0, 0, 0, 0, 0, 0, 0, 0, 0, 0, 0, 0, 0, 0, 0, 0, 0, 0, 0, 0, 0, 0, 0, 0, 0, 0, 0, 0], [0, 0, 0, 0, 0, 0, 0, 0, 0, 0, 0, 0, 0, 0, 0, 0, 0, 0, 0, 0, 0, 0, 0, 0, 0, 0, 0, 0, 0, 0, 0, 0, 0, 0, 0, 0, 0, 0, 0, 0], [0, 0, 0, 0, 0, 0, 0, 0, 0, 0, 0, 0, 0, 0, 0, 0, 0, 0, 0, 0, 0, 0, 0, 0, 0, 0, 0, 0, 0, 0, 0, 0, 0, 0, 0, 0, 0, 0, 0, 0], [0, 0, 0, 0, 0, 0, 0, 0, 0, 0, 0, 0, 0, 0, 0, 0, 0, 0, 0, 0, 0, 0, 0, 0, 0, 0, 0, 0, 0, 0, 0, 0, 0, 0, 0, 0, 0, 0, 0, 0], [48, 33, 42, 38, 50, 42, 34, 35, 38, 36, 41, 38, 30, 30, 31, 38, 40, 45, 48, 31, 50, 31, 45, 34, 45, 39, 38, 44, 42, 33, 40, 47, 35, 50, 39, 32, 41, 32, 30, 48], [33, 42, 34, 48, 39, 39, 37, 31, 42, 49, 47, 35, 41, 49, 45, 35, 31, 43, 31, 49, 50, 34, 40, 41, 40, 35, 39, 49, 39, 30, 30, 41, 46, 47, 44, 48, 30, 46, 30, 39]], [[0, 0, 0, 0, 0, 0, 0, 0, 0, 0, 0, 0, 0, 0, 0, 0, 0, 0, 0, 0, 0, 0, 0, 0, 0, 0, 0, 0, 0, 0, 0, 0, 0, 0, 0, 0, 0, 0, 0, 0], [0, 0, 0, 0, 0, 0, 0, 0, 0, 0, 0, 0, 0, 0, 0, 0, 0, 0, 0, 0, 0, 0, 0, 0, 0, 0, 0, 0, 0, 0, 0, 0, 0, 0, 0, 0, 0, 0, 0, 0], [0, 0, 0, 0, 0, 0, 0, 0, 0, 0, 0, 0, 0, 0, 0, 0, 0, 0, 0, 0, 0, 0, 0, 0, 0, 0, 0, 0, 0, 0, 0, 0, 0, 0, 0, 0, 0, 0, 0, 0], [0, 0, 0, 0, 0, 0, 0, 0, 0, 0, 0, 0, 0, 0, 0, 0, 0, 0, 0, 0, 0, 0, 0, 0, 0, 0, 0, 0, 0, 0, 0, 0, 0, 0, 0, 0, 0, 0, 0, 0], [0, 0, 0, 0, 0, 0, 0, 0, 0, 0, 0, 0, 0, 0, 0, 0, 0, 0, 0, 0, 0, 0, 0, 0, 0, 0, 0, 0, 0, 0, 0, 0, 0, 0, 0, 0, 0, 0, 0, 0], [0, 0, 0, 0, 0, 0, 0, 0, 0, 0, 0, 0, 0, 0, 0, 0, 0, 0, 0, 0, 0, 0, 0, 0, 0, 0, 0, 0, 0, 0, 0, 0, 0, 0, 0, 0, 0, 0, 0, 0], [0, 0, 0, 0, 0, 0, 0, 0, 0, 0, 0, 0, 0, 0, 0, 0, 0, 0, 0, 0, 0, 0, 0, 0, 0, 0, 0, 0, 0, 0, 0, 0, 0, 0, 0, 0, 0, 0, 0, 0], [0, 0, 0, 0, 0, 0, 0, 0, 0, 0, 0, 0, 0, 0, 0, 0, 0, 0, 0, 0, 0, 0, 0, 0, 0, 0, 0, 0, 0, 0, 0, 0, 0, 0, 0, 0, 0, 0, 0, 0], [0, 0, 0, 0, 0, 0, 0, 0, 0, 0, 0, 0, 0, 0, 0, 0, 0, 0, 0, 0, 0, 0, 0, 0, 0, 0, 0, 0, 0, 0, 0, 0, 0, 0, 0, 0, 0, 0, 0, 0], [35, 46, 38, 42, 47, 39, 39, 40, 46, 37, 46, 30, 36, 34, 31, 48, 34, 32, 31, 50, 31, 30, 30, 38, 40, 42, 49, 41, 49, 40, 49, 35, 48, 44, 33, 47, 33, 34, 36, 39]], [[0, 0, 0, 0, 0, 0, 0, 0, 0, 0, 0, 0, 0, 0, 0, 0, 0, 0, 0, 0, 0, 0, 0, 0, 0, 0, 0, 0, 0, 0, 0, 0, 0, 0, 0, 0, 0, 0, 0, 0], [0, 0, 0, 0, 0, 0, 0, 0, 0, 0, 0, 0, 0, 0, 0, 0, 0, 0, 0, 0, 0, 0, 0, 0, 0, 0, 0, 0, 0, 0, 0, 0, 0, 0, 0, 0, 0, 0, 0, 0], [0, 0, 0, 0, 0, 0, 0, 0, 0, 0, 0, 0, 0, 0, 0, 0, 0, 0, 0, 0, 0, 0, 0, 0, 0, 0, 0, 0, 0, 0, 0, 0, 0, 0, 0, 0, 0, 0, 0, 0], [0, 0, 0, 0, 0, 0, 0, 0, 0, 0, 0, 0, 0, 0, 0, 0, 0, 0, 0, 0, 0, 0, 0, 0, 0, 0, 0, 0, 0, 0, 0, 0, 0, 0, 0, 0, 0, 0, 0, 0], [0, 0, 0, 0, 0, 0, 0, 0, 0, 0, 0, 0, 0, 0, 0, 0, 0, 0, 0, 0, 0, 0, 0, 0, 0, 0, 0, 0, 0, 0, 0, 0, 0, 0, 0, 0, 0, 0, 0, 0], [0, 0, 0, 0, 0, 0, 0, 0, 0, 0, 0, 0, 0, 0, 0, 0, 0, 0, 0, 0, 0, 0, 0, 0, 0, 0, 0, 0, 0, 0, 0, 0, 0, 0, 0, 0, 0, 0, 0, 0], [0, 0, 0, 0, 0, 0, 0, 0, 0, 0, 0, 0, 0, 0, 0, 0, 0, 0, 0, 0, 0, 0, 0, 0, 0, 0, 0, 0, 0, 0, 0, 0, 0, 0, 0, 0, 0, 0, 0, 0], [0, 0, 0, 0, 0, 0, 0, 0, 0, 0, 0, 0, 0, 0, 0, 0, 0, 0, 0, 0, 0, 0, 0, 0, 0, 0, 0, 0, 0, 0, 0, 0, 0, 0, 0, 0, 0, 0, 0, 0], [0, 0, 0, 0, 0, 0, 0, 0, 0, 0, 0, 0, 0, 0, 0, 0, 0, 0, 0, 0, 0, 0, 0, 0, 0, 0, 0, 0, 0, 0, 0, 0, 0, 0, 0, 0, 0, 0, 0, 0], [0, 0, 0, 0, 0, 0, 0, 0, 0, 0, 0, 0, 0, 0, 0, 0, 0, 0, 0, 0, 0, 0, 0, 0, 0, 0, 0, 0, 0, 0, 0, 0, 0, 0, 0, 0, 0, 0, 0, 0]]];

q = [[[18], [9], [22], [18], [13], [10], [13], [15], [7], [13], [13], [13], [23], [7], [13], [8], [18], [10], [6], [19], [13], [19], [20], [17], [24], [15], [16], [23], [17], [13], [18], [9], [17], [17], [5], [5], [16], [16], [9], [17]], [[10], [10], [15], [12], [15], [20], [10], [8], [5], [12], [13], [5], [21], [18], [12], [12], [16], [5], [10], [13], [13], [9], [15], [14], [21], [19], [5], [23], [11], [9], [21], [20], [23], [9], [8], [22], [13], [17], [19], [7]], [[25], [19], [16], [18], [15], [12], [5], [17], [9], [18], [23], [7], [22], [9], [13], [7], [20], [13], [25], [13], [16], [25], [6], [12], [10], [25], [14], [23], [16], [6], [22], [12], [17], [7], [15], [10], [25], [5], [20], [25]], [[5], [5], [19], [23], [22], [18], [12], [12], [16], [16], [9], [19], [13], [11], [21], [10], [12], [19], [10], [17], [18], [8], [17], [5], [13], [21], [24], [9], [15], [11], [10], [21], [5], [14], [21], [8], [9], [7], [13], [11]], [[22], [24], [17], [12], [14], [10], [19], [11], [23], [24], [12], [18], [8], [18], [20], [24], [18], [14], [23], [24], [13], [15], [5], [25], [11], [9], [13], [20], [5], [17], [15], [12], [22], [12], [8], [6], [7], [17], [18], [17]], [[5], [9], [11], [10], [18], [7], [25], [24], [6], [15], [21], [6], [9], [9], [25], [20], [5], [25], [21], [24], [18], [21], [19], [12], [21], [11], [22], [10], [22], [23], [7], [10], [13], [5], [22], [15], [17], [8], [6], [19]], [[10], [18], [23], [7], [14], [16], [5], [25], [5], [16], [21], [17], [5], [12], [24], [21], [19], [23], [15], [15], [8], [21], [16], [17], [16], [9], [17], [25], [11], [20], [24], [25], [6], [20], [19], [12], [19], [9], [25], [5]], [[10], [13], [16], [21], [17], [22], [8], [23], [10], [9], [21], [18], [12], [6], [6], [24], [13], [19], [18], [9], [11], [13], [8], [20], [24], [8], [12], [10], [24], [6], [25], [11], [21], [21], [10], [10], [16], [15], [24], [15]], [[21], [17], [6], [12], [22], [11], [12], [6], [7], [14], [19], [9], [7], [18], [18], [9], [25], [13], [20], [22], [21], [5], [17], [16], [12], [13], [18], [18], [5], [6], [24], [25], [9], [17], [13], [22], [23], [23], [8], [15]], [[25], [19], [10], [15], [22], [17], [24], [7], [12], [24], [6], [18], [22], [22], [10], [19], [15], [9], [10], [18], [5], [24], [22], [17], [9], [20], [7], [14], [21], [5], [22], [24], [7], [20], [16], [17], [7], [9], [7], [14]]];
Q = [[45], [43], [49], [43], [49], [47], [50], [47], [47], [48]];
